100
1000
150
0 0
-10 -38
-10 -38
-10 -38
-10 -38
-10 -38
-10 -38
-10 -38
-10 -38
-10 -38
-10 -38
-10 -38
-10 -38
-10 -38
-10 -38
-10 -38
40 35
40 35
40 35
40 35
40 35
40 35
40 35
40 35
40 35
40 35
40 35
40 35
40 35
40 35
40 35
-40 -13
-40 -13
-40 -13
-40 -13
-40 -13
-40 -13
-40 -13
-40 -13
-40 -13
-40 -13
-40 -13
-40 -13
-40 -13
-40 -13
-40 -13
-29 20
-29 20
-29 20
-29 20
-29 20
-29 20
-29 20
-29 20
-29 20
-29 20
-29 20
-29 20
-29 20
-29 20
-29 20
-13 -10
-13 -10
-13 -10
-13 -10
-13 -10
-13 -10
-13 -10
-13 -10
-13 -10
-13 -10
-13 -10
-13 -10
-13 -10
-13 -10
-13 -10
18 -29
-30 36
-13 -7
30 -2
-36 18
-21 30
40 -9
8 10
11 -38
-17 -6
-5 40
-21 35
14 -10
14 13
-5 37
18 -29
-30 36
-13 -7
30 -2
-36 18
-21 30
40 -9
8 10
11 -38
-17 -6
-5 40
-21 35
14 -10
14 13
-5 37
18 -29
-30 36
-13 -7
30 -2
-36 18
-21 30
40 -9
8 10
11 -38
-17 -6
-5 40
-21 35
14 -10
14 13
-5 37
18 -29
-30 36
-13 -7
30 -2
-36 18
-21 30
40 -9
8 10
11 -38
-17 -6
-5 40
-21 35
14 -10
14 13
-5 37
18 -29
-30 36
-13 -7
30 -2
-36 18
-21 30
40 -9
8 10
11 -38
-17 -6
-5 40
-21 35
14 -10
14 13
-5 37
0 0 
52
54
56
54
53
56
55
59
56
56
53
56
52
54
59
55
52
54
60
57
52
54
52
59
55
51
60
56
54
52
55
52
57
55
53
51
54
53
51
60
57
56
56
51
56
59
55
54
55
57
54
55
59
59
52
52
56
55
54
54
57
55
55
56
54
56
59
52
54
55
59
57
57
59
54
52
54
56
54
53
56
55
59
56
56
53
56
52
54
59
55
52
54
60
57
52
54
52
59
55
51
60
56
54
52
55
52
57
55
53
51
54
53
51
60
57
56
56
51
56
59
55
54
55
57
54
55
59
59
52
52
56
55
54
54
57
55
55
56
54
56
59
52
54
55
59
57
57
59
54
